
Gurobi 11.0.3 (linux64) logging started Mon 18 Nov 2024 10:19:14 PM CST

Set parameter LogFile to value "/home/dlcole3/graph_abstraction/hierarchical_graphs/git_storage/CS1/HP_low_reserves/gurobi_logs/serial/logfile_ST16_5.log"

Gurobi 11.0.3 (linux64) logging started Mon 18 Nov 2024 10:24:54 PM CST

Set parameter LogFile to value "/home/dlcole3/graph_abstraction/hierarchical_graphs/git_storage/CS1/HP_low_reserves/gurobi_logs/serial/logfile_ST16_5.log"
Gurobi Optimizer version 11.0.3 build v11.0.3rc0 (linux64 - "Ubuntu 18.04.3 LTS")

CPU model: Intel(R) Xeon(R) CPU E5-2698 v4 @ 2.20GHz, instruction set [SSE2|AVX|AVX2]
Thread count: 40 physical cores, 80 logical processors, using up to 20 threads

Optimize a model with 29168 rows, 50688 columns and 136175 nonzeros
Model fingerprint: 0xd424b9db
Variable types: 46944 continuous, 3744 integer (3744 binary)
Coefficient statistics:
  Matrix range     [6e-01, 2e+04]
  Objective range  [2e+00, 2e+04]
  Bounds range     [5e-02, 2e+05]
  RHS range        [5e-02, 7e+03]
Presolve removed 13979 rows and 38657 columns
Presolve time: 0.37s
Presolved: 15189 rows, 12031 columns, 64816 nonzeros
Variable types: 8959 continuous, 3072 integer (3072 binary)
Found heuristic solution: objective 6477477.4754
Found heuristic solution: objective 5124353.1034

Root relaxation: objective 2.574833e+05, 8919 iterations, 0.57 seconds (0.46 work units)

    Nodes    |    Current Node    |     Objective Bounds      |     Work
 Expl Unexpl |  Obj  Depth IntInf | Incumbent    BestBd   Gap | It/Node Time

     0     0 257483.298    0   68 5124353.10 257483.298  95.0%     -    1s
H    0     0                    384356.34015 257483.298  33.0%     -    2s
     0     0 257483.298    0   68 384356.340 257483.298  33.0%     -    2s
     0     2 257483.298    0   68 384356.340 257483.298  33.0%     -    2s
H   31    52                    384344.02797 257672.753  33.0%  90.3    3s
H   32    52                    363781.06886 257672.753  29.2%  90.4    3s
H   34    52                    357782.01827 257672.753  28.0%  89.3    3s
H   36    52                    322833.11222 257672.753  20.2%  86.4    3s
H   37    52                    263608.59390 257672.753  2.25%  84.4    3s
H   43    52                    260683.68153 257677.890  1.15%  81.0    3s
H  883   672                    260642.75583 257718.331  1.12%  30.4    4s
   962   734 258615.999   13   40 260642.756 257718.331  1.12%  30.5    5s
H 1368   971                    260621.70628 257718.331  1.11%  29.5    5s
H 1437  1014                    260530.79880 257718.331  1.08%  29.3    5s
H 1726  1149                    260463.23708 257747.019  1.04%  28.2    6s
* 1728  1149              96    260462.88265 257747.019  1.04%  28.2    6s
H 2458  1610                    260417.72495 257799.047  1.01%  26.4    7s
H 2566  1665                    260416.76302 257799.047  1.01%  26.3    7s
H 2850  1269                    259737.00728 257799.047  0.75%  25.7   10s
H 2851  1106                    259093.71604 257799.047  0.50%  25.7   10s
H 2853  1106                    258918.29860 257799.047  0.43%  25.7   10s
H 2856  1106                    258900.59438 257799.047  0.43%  25.7   10s
H 3876  1054                    258846.40663 257878.089  0.37%  23.9   13s
H 3889  1054                    258845.29034 257878.089  0.37%  23.9   13s

Explored 5527 nodes (130836 simplex iterations) in 14.78 seconds (13.57 work units)
Thread count was 20 (of 80 available processors)

Solution count 10: 258845 258845 258846 ... 260531

Optimal solution found (tolerance 3.00e-03)
Best objective 2.588452903388e+05, best bound 2.580791886856e+05, gap 0.2960%

User-callback calls 14215, time in user-callback 0.01 sec
